int NumberPatients = 289
int NumberOfRooms = 4
int NumberSurgeons = 20
int NumberOfDays = 6
Duration = [47,116,50,39,72,224,47,73,47,135,195,52,60,60,74,73,44,44,142,60,116,34,198,116,116,135,85,52,90,47,36,34,50,50,50,70,47,60,60,50,47,60,44,52,135,47,119,133,48,60,60,44,47,90,135,47,47,83,50,224,50,50,96,116,190,66,47,47,60,69,60,180,28,135,58,73,74,50,50,60,83,180,50,60,83,47,60,69,47,70,52,47,47,90,60,47,112,28,58,60,116,52,34,73,135,50,45,96,70,224,135,135,394,52,50,38,90,70,90,90,52,50,50,92,47,96,34,135,135,224,60,224,22,135,50,60,49,51,45,52,44,60,47,44,47,69,135,47,69,49,22,45,50,60,74,49,27,116,185,116,65,60,116,66,47,60,45,116,60,224,47,250,92,50,180,38,47,70,45,70,142,215,135,47,53,224,47,52,22,49,47,58,90,47,224,47,50,60,52,224,50,47,38,47,224,116,52,47,224,44,53,45,60,116,215,60,116,60,44,135,29,11,96,22,50,65,69,60,180,62,52,50,47,69,135,66,90,52,38,217,88,180,60,194,140,58,217,28,90,47,47,70,70,52,116,47,47,217,69,100,49,47,217,66,224,50,180,49,20,47,22,217,60,48,52,66,116,50,98,50,69,88,60,37,90,58,69,224,44];
Priority = [0,0,0,0,0,0,0,0,0,0,0,0,0,0,0,0,0,0,0,0,0,0,0,0,0,0,0,0,0,0,0,0,0,0,0,1,0,0,0,0,0,0,0,0,0,0,0,0,0,0,0,0,0,0,0,0,0,0,0,0,0,0,0,0,0,0,0,0,0,0,0,0,0,0,0,0,0,0,0,0,0,0,0,0,0,0,0,0,0,0,0,0,0,0,0,0,0,0,0,0,0,0,0,0,0,0,0,0,0,1,1,0,0,0,0,0,0,0,0,0,0,0,0,0,0,0,0,1,0,0,0,0,0,1,0,0,0,1,0,0,0,0,0,0,0,0,0,0,0,0,0,0,0,0,0,0,0,0,0,0,0,0,0,0,0,0,0,0,0,0,0,1,0,0,0,0,0,0,0,1,0,1,0,0,0,0,0,0,0,0,0,0,0,0,0,0,0,0,0,0,0,0,0,0,0,0,0,0,0,0,0,0,0,0,1,0,0,0,0,0,0,0,0,0,0,0,0,0,1,0,0,1,0,1,0,0,0,0,0,0,0,0,0,0,0,0,0,0,0,0,0,0,0,0,0,0,0,1,1,0,0,0,0,0,1,0,0,0,0,0,0,1,1,0,0,1,0,0,0,0,1,0,0,0,1,0,0,0,0];
Waiting = [304,315,220,267,319,204,213,206,242,336,304,423,248,262,268,276,277,277,199,289,450,228,193,196,196,191,189,197,186,186,186,189,182,185,179,179,178,175,175,170,170,170,168,168,168,165,165,165,165,164,163,163,163,163,158,158,158,158,157,157,157,157,156,156,156,156,154,154,154,154,154,151,151,151,151,150,150,150,150,149,149,148,148,144,144,144,144,143,143,143,143,142,142,137,144,135,135,135,135,135,135,135,133,130,130,129,128,128,128,127,123,123,122,121,121,121,120,116,115,115,115,115,115,115,115,115,113,112,112,112,109,311,107,105,105,102,101,101,101,100,100,100,98,95,94,94,93,93,92,92,92,87,87,87,87,99,86,86,86,85,81,81,80,80,80,80,80,79,79,79,78,77,77,74,74,73,73,73,73,72,71,70,70,66,66,71,66,65,65,65,65,65,65,60,59,59,59,59,59,59,59,59,58,58,58,58,58,58,58,58,57,59,57,57,56,56,53,53,53,52,52,52,52,52,52,52,52,52,51,51,51,51,51,51,51,51,51,51,51,51,50,50,49,49,49,46,46,46,45,45,45,45,45,44,43,43,39,39,38,38,38,38,38,38,38,38,37,37,37,37,37,36,36,36,36,36,32,31,31,30,36,30,30,22,25,23,23,30,23];

Surgeon = [1,2,3,1,2,4,5,6,2,7,8,9,10,3,4,3,1,1,10,2,4,1,2,2,2,7,2,5,1,1,1,2,5,6,11,1,3,2,2,12,13,13,2,2,7,11,14,11,11,3,12,7,13,12,2,11,11,14,5,3,5,5,12,12,13,14,5,2,15,15,15,14,2,7,15,3,5,5,3,12,7,5,5,11,2,11,2,8,3,8,6,16,15,7,2,12,13,7,7,15,15,15,2,2,2,5,7,12,14,5,7,15,8,12,17,11,5,2,4,4,4,6,5,16,6,10,5,7,5,5,11,10,17,7,3,11,3,10,10,12,12,17,18,7,16,8,7,15,4,5,5,10,5,10,10,18,13,12,15,18,2,11,3,8,3,3,10,12,15,15,5,14,6,7,15,16,6,8,10,7,5,13,7,3,16,19,6,13,7,7,7,7,13,2,4,3,5,10,3,10,10,5,13,12,13,12,12,12,13,13,6,6,18,5,11,7,5,5,20,8,8,8,8,8,3,6,8,10,7,14,12,7,13,4,4,14,12,12,13,17,5,5,14,5,7,14,17,11,3,2,8,6,8,12,18,18,11,7,16,20,10,17,17,17,7,7,14,7,7,13,15,4,14,6,5,18,11,5,8,19,18,15,15,17,4,12,12,15,12];
BlockAvailability = [[[1,1],[1,0],[0,0],[0,0]],[[1,1],[1,0],[0,0],[0,0]],[[0,0],[1,1],[1,0],[0,0]],[[0,0],[0,0],[0,0],[0,0]],[[0,0],[1,0],[0,0],[1,0]],[[0,0],[0,0],[0,0],[0,0]]];
SurgeonAvailability = [[[1,1],[1,1],[1,1],[1,1],[1,1],[1,1]],[[1,1],[1,1],[1,1],[1,1],[1,1],[1,1]],[[1,1],[1,1],[1,1],[1,1],[1,1],[1,1]],[[1,1],[1,1],[1,1],[1,1],[1,1],[1,1]],[[1,1],[1,1],[1,1],[1,1],[1,1],[1,1]],[[1,1],[1,1],[1,1],[1,1],[1,1],[1,1]],[[1,1],[1,1],[1,1],[1,1],[1,1],[1,1]],[[1,1],[1,1],[1,1],[1,1],[1,1],[1,1]],[[1,1],[1,1],[1,1],[1,1],[1,1],[1,1]],[[1,1],[1,1],[1,1],[1,1],[1,1],[1,1]],[[1,1],[1,1],[1,1],[1,1],[1,1],[1,1]],[[1,1],[1,1],[1,1],[1,1],[1,1],[1,1]],[[1,1],[1,1],[1,1],[1,1],[1,1],[1,1]],[[1,1],[1,1],[1,1],[1,1],[1,1],[1,1]],[[1,1],[1,1],[1,1],[1,1],[1,1],[1,1]],[[1,1],[1,1],[1,1],[1,1],[1,1],[1,1]],[[1,1],[1,1],[1,1],[1,1],[1,1],[1,1]],[[1,1],[1,1],[1,1],[1,1],[1,1],[1,1]],[[1,1],[1,1],[1,1],[1,1],[1,1],[1,1]],[[1,1],[1,1],[1,1],[1,1],[1,1],[1,1]]];
